\ Model shortest_paths
\ LP format - for model browsing. Use MPS format to capture full model detail.
Minimize
  0.987 x[1_0,1^0,1] + 5.583315144248981 x[2_0,2^0,2] + 3.948 x[2_0,2^1,2]
   + 4.187486358186735 x[3_0,3^0,3] + 2.961 x[3_0,3^1,3]
   + 12.56245907456021 z[4_1,4^0] + 8.883 z[4_0,4^0]
   + 15.38580732363434 z[4_2,4^0]
Subject To
 UB-y[4_0,4^0,1]: x[4_0,4^0,1] - y[4_0,4^0,1] <= 0
 UB-y[4_0,4^0,2]: x[4_0,4^0,2] - y[4_0,4^0,2] <= 0
 UB-y[4_0,4^0,3]: x[4_0,4^0,3] - y[4_0,4^0,3] <= 0
 UB-y[4_1,4^0,1]: x[4_1,4^0,1] - y[4_1,4^0,1] <= 0
 UB-y[4_1,4^0,2]: x[4_1,4^0,2] - y[4_1,4^0,2] <= 0
 UB-y[4_1,4^0,3]: x[4_1,4^0,3] - y[4_1,4^0,3] <= 0
 UB-y[4_2,4^0,1]: x[4_2,4^0,1] - y[4_2,4^0,1] <= 0
 UB-y[4_2,4^0,2]: x[4_2,4^0,2] - y[4_2,4^0,2] <= 0
 UB-y[4_2,4^0,3]: x[4_2,4^0,3] - y[4_2,4^0,3] <= 0
 UB-z[1,('4_1',_'4^0')]: y[4_1,4^0,1] - z[4_1,4^0] <= 0
 UB-z[1,('4_0',_'4^0')]: y[4_0,4^0,1] - z[4_0,4^0] <= 0
 UB-z[1,('4_2',_'4^0')]: y[4_2,4^0,1] - z[4_2,4^0] <= 0
 UB-z[2,('4_1',_'4^0')]: y[4_1,4^0,2] - z[4_1,4^0] <= 0
 UB-z[2,('4_0',_'4^0')]: y[4_0,4^0,2] - z[4_0,4^0] <= 0
 UB-z[2,('4_2',_'4^0')]: y[4_2,4^0,2] - z[4_2,4^0] <= 0
 UB-z[3,('4_1',_'4^0')]: y[4_1,4^0,3] - z[4_1,4^0] <= 0
 UB-z[3,('4_0',_'4^0')]: y[4_0,4^0,3] - z[4_0,4^0] <= 0
 UB-z[3,('4_2',_'4^0')]: y[4_2,4^0,3] - z[4_2,4^0] <= 0
 netflow[1_0]: x[1_0,1^0,1] + x[1_0,1^1,1] = 1
 netflow[1^0]: - x[1_0,1^0,1] + x[1^0,4_0,1] = 0
 netflow[1^1]: - x[1_0,1^1,1] + x[1^1,4_1,1] = 0
 netflow[2_0]: x[2_0,2^0,2] + x[2_0,2^1,2] + x[2_0,2^2,2] = 1
 netflow[2^0]: - x[2_0,2^0,2] + x[2^0,4_0,2] = 0
 netflow[2^1]: - x[2_0,2^1,2] + x[2^1,4_1,2] = 0
 netflow[2^2]: - x[2_0,2^2,2] + x[2^2,4_2,2] = 0
 netflow[3_0]: x[3_0,3^0,3] + x[3_0,3^1,3] + x[3_0,3^2,3] = 1
 netflow[3^0]: - x[3_0,3^0,3] + x[3^0,4_0,3] = 0
 netflow[3^1]: - x[3_0,3^1,3] + x[3^1,4_1,3] = 0
 netflow[3^2]: - x[3_0,3^2,3] + x[3^2,4_2,3] = 0
 netflow[4_0,1]: x[4_0,4^0,1] - x[1^0,4_0,1] = 0
 netflow[4_0,2]: x[4_0,4^0,2] - x[2^0,4_0,2] = 0
 netflow[4_0,3]: x[4_0,4^0,3] - x[3^0,4_0,3] = 0
 netflow[4_1,1]: x[4_1,4^0,1] - x[1^1,4_1,1] = 0
 netflow[4_1,2]: x[4_1,4^0,2] - x[2^1,4_1,2] = 0
 netflow[4_1,3]: x[4_1,4^0,3] - x[3^1,4_1,3] = 0
 netflow[4_2,1]: x[4_2,4^0,1] = 0
 netflow[4_2,2]: x[4_2,4^0,2] - x[2^2,4_2,2] = 0
 netflow[4_2,3]: x[4_2,4^0,3] - x[3^2,4_2,3] = 0
 netflow[4^0,1]: - x[4_0,4^0,1] - x[4_1,4^0,1] - x[4_2,4^0,1] = -1
 netflow[4^0,2]: - x[4_0,4^0,2] - x[4_1,4^0,2] - x[4_2,4^0,2] = -1
 netflow[4^0,3]: - x[4_0,4^0,3] - x[4_1,4^0,3] - x[4_2,4^0,3] = -1
Bounds
Binaries
 z[4_1,4^0] z[4_0,4^0] z[4_2,4^0]
End
